4 
5  16 36 52 
6  07 22 37 52 
7  07 22 37 52 
8  07 22 37 52 
9  07 20 35 50 
10  05 20 35 50 
11  05 20 35 50 
12  05 20 35 50 
13  05 21 36 51 
14  06 22 36 51 
15  06 19 34 49 
16  04 19 34 49 
17  04 19 34 49 
18  04 19 36 51 
19  06 20 35 50 
20  05 
21 
